Route #1: 24 14
Route #2: 9
Route #3: 28 31 37 11 27 22 5
Route #4: 15
Route #5: 21 10 30 26 12 3 1 4 16
Route #6: 32 20 7
Route #7: 18 19 34 29 6 25
Route #8: 2 13 36 17 8 33 35 23
cost: 841.1887913664924
